
List of user-set options:

                                    Name   Value                used
                           compl_inf_tol = 1                     yes
                         constr_viol_tol = 1                     yes
                            dual_inf_tol = 1000                  yes
                           linear_solver = ma97                  yes
                              ma86_small = 1e-30                  no
                                  ma86_u = 0.0001                 no
                              ma97_order = best                  yes
                              ma97_small = 1e-30                 yes
                            ma97_switch1 = at_start              yes
                            ma97_switch2 = od_hd_reuse           yes
                                  ma97_u = 1e-06                 yes
                               ma97_umax = 0.5                   yes
                                max_iter = 2000                  yes
                    max_refinement_steps = 20                    yes
                    min_refinement_steps = 5                     yes
                                 mu_init = 1e-06                 yes
           mu_superlinear_decrease_power = 1.25                  yes
                   nlp_scaling_min_value = 1e-08                 yes
                        option_file_name = Preset_Case:_33_NCP.opt  yes
                             output_file = ./tmp/Preset_Case:_33_NCP.output  yes
                      print_user_options = yes                   yes
        required_infeasibility_reduction = 1                      no
                                     tol = 1e-08                 yes
                   warm_start_bound_frac = 1e-20                 yes
                   warm_start_bound_push = 1e-20                 yes
                   warm_start_init_point = yes                   yes
              warm_start_mult_bound_push = 1e-20                 yes
                warm_start_mult_init_max = 1e+40                 yes
             warm_start_slack_bound_frac = 1e-20                 yes
             warm_start_slack_bound_push = 1e-20                 yes

******************************************************************************
This program contains Ipopt, a library for large-scale nonlinear optimization.
 Ipopt is released as open source code under the Eclipse Public License (EPL).
         For more information visit http://projects.coin-or.org/Ipopt
******************************************************************************

This is Ipopt version 3.12.10, running with linear solver ma97.

Number of nonzeros in equality constraint Jacobian...:   117140
Number of nonzeros in inequality constraint Jacobian.:      213
Number of nonzeros in Lagrangian Hessian.............:    47462

Total number of variables............................:    29971
                     variables with only lower bounds:    11312
                variables with lower and upper bounds:    15132
                     variables with only upper bounds:        0
Total number of equality constraints.................:    29864
Total number of inequality constraints...............:       25
        inequality constraints with only lower bounds:        4
   inequality constraints with lower and upper bounds:        0
        inequality constraints with only upper bounds:       21

iter    objective    inf_pr   inf_du lg(mu)  ||d||  lg(rg) alpha_du alpha_pr  ls
   0 -2.6570590e-02 2.42e-01 1.08e+02  -6.0 0.00e+00    -  0.00e+00 0.00e+00   0
   1 -2.6570597e-02 2.42e-01 1.08e+02  -6.0 4.98e+02   2.0 2.54e-08 6.10e-10f  1
   2 -2.6570597e-02 2.42e-01 1.08e+02  -6.0 4.06e-01   1.5 6.49e-06 1.37e-08f  1
   3 -2.6570597e-02 2.42e-01 6.05e+02  -6.0 3.84e+02   1.0 1.62e-07 8.93e-10f  2
   4 -2.6570599e-02 2.42e-01 2.32e+02  -6.0 7.59e+02   0.6 1.33e-08 1.66e-07f  1
   5 -2.6570604e-02 2.42e-01 1.42e+02  -6.0 7.99e+02   0.1 3.05e-07 5.12e-07f  1
   6 -2.6570634e-02 2.42e-01 9.21e+02  -6.0 8.04e+02  -0.4 1.17e-06 3.19e-06f  1
   7 -2.6570783e-02 2.42e-01 2.69e+03  -6.0 8.05e+02  -0.9 2.98e-06 1.67e-05h  1
   8 -2.6571546e-02 2.42e-01 6.07e+03  -6.0 8.05e+02  -1.3 4.24e-06 8.32e-05f  1
   9 -2.6579654e-02 2.42e-01 1.86e+04  -6.0 8.04e+02  -1.8 7.95e-05 9.62e-04f  1
iter    objective    inf_pr   inf_du lg(mu)  ||d||  lg(rg) alpha_du alpha_pr  ls
  10 -2.6601247e-02 2.41e-01 2.44e+04  -6.0 8.00e+02  -2.3 1.09e-03 2.35e-03f  1
  11 -2.6611228e-02 2.41e-01 2.05e+04  -6.0 7.90e+02  -1.9 4.77e-03 1.06e-03f  1
  12 -2.6765899e-02 2.34e-01 1.19e+05  -6.0 7.84e+02  -2.3 6.63e-03 2.90e-02f  1
  13 -2.6764627e-02 2.33e-01 1.20e+05  -6.0 6.43e+02  -1.9 1.10e-02 1.17e-03h  1
  14 -2.6758581e-02 2.33e-01 8.01e+05  -6.0 6.22e+02  -2.4 5.61e-01 3.19e-03f  3
  15 -2.6749249e-02 2.32e-01 7.77e+05  -6.0 6.22e+02  -2.0 7.82e-07 4.40e-03h  3
  16 -2.6730047e-02 2.30e-01 2.98e+05  -6.0 6.06e+02  -0.6 1.46e-03 7.27e-03h  1
  17 -2.6405221e-02 2.30e-01 4.86e+05  -6.0 5.80e+02  -0.2 1.27e-04 1.77e-03h  2
  18r-2.6405221e-02 2.30e-01 1.00e+03  -0.6 0.00e+00  -0.7 0.00e+00 3.96e-07R 15
  19r-2.2083959e-02 2.30e-01 2.00e+03  -0.6 1.01e+04    -  3.38e-06 3.39e-06f  1
iter    objective    inf_pr   inf_du lg(mu)  ||d||  lg(rg) alpha_du alpha_pr  ls
  20r-1.7386847e-02 2.28e-01 2.14e+03  -0.6 7.14e+03    -  5.45e-05 4.54e-05f  1
  21 -1.7387008e-02 2.28e-01 1.23e+05  -6.0 1.99e+02    -  7.01e-02 1.19e-05h  1
  22 -1.7511003e-02 2.27e-01 5.91e+07  -6.0 5.78e+02    -  1.27e-05 6.08e-03h  1
  23 -1.7517556e-02 2.27e-01 5.91e+07  -6.0 5.57e+02    -  1.02e-02 3.41e-04h  1
  24 -1.8540074e-02 2.15e-01 5.59e+07  -6.0 5.59e+02    -  1.66e-02 5.30e-02f  1
  25 -1.8852932e-02 2.11e-01 5.49e+07  -6.0 4.20e+02    -  9.07e-02 1.86e-02f  1
  26 -1.9320501e-02 2.05e-01 5.34e+07  -6.0 3.99e+02    -  1.01e-01 2.74e-02h  1
  27 -2.1164997e-02 2.02e-01 4.78e+07  -6.0 3.69e+02    -  1.09e-01 1.05e-01h  1
  28 -2.1183741e-02 2.02e-01 4.78e+07  -6.0 2.90e+02    -  1.11e-01 1.03e-03h  1
  29 -2.5739218e-02 3.63e+00 3.60e+07  -6.0 2.90e+02    -  2.85e-01 2.46e-01f  1
iter    objective    inf_pr   inf_du lg(mu)  ||d||  lg(rg) alpha_du alpha_pr  ls
  30 -2.8735942e-02 4.81e+00 2.82e+07  -6.0 2.07e+02    -  3.27e-01 2.18e-01h  1
  31 -2.9233703e-02 4.63e+00 2.71e+07  -6.0 2.02e+02    -  1.99e-01 3.89e-02h  1
  32 -3.1645570e-02 3.91e+00 2.30e+07  -6.0 3.60e+02    -  4.05e-01 1.52e-01h  1
  33 -3.3188244e-02 3.44e+00 2.04e+07  -6.0 3.76e+02    -  2.51e-02 1.12e-01h  1
  34r-3.3188244e-02 3.44e+00 1.00e+03   0.1 0.00e+00  -1.2 0.00e+00 3.40e-07R  5
  35r-3.2745109e-02 3.44e+00 4.25e+03   0.1 8.00e+05    -  2.31e-08 2.38e-07f  1
  36 -3.2745347e-02 3.44e+00 5.78e+06  -6.0 3.37e+02    -  1.64e-01 1.54e-05h  1
  37 -3.2748262e-02 3.44e+00 3.78e+06  -6.0 4.17e+02    -  1.33e-04 8.68e-05h  1
  38 -3.2879636e-02 3.41e+00 4.29e+06  -6.0 3.60e+02    -  1.96e-01 8.48e-03h  1
  39 -3.3104228e-02 3.36e+00 4.63e+06  -6.0 3.79e+02    -  8.44e-03 1.45e-02h  1
iter    objective    inf_pr   inf_du lg(mu)  ||d||  lg(rg) alpha_du alpha_pr  ls
  40 -3.3161548e-02 3.35e+00 7.78e+06  -6.0 4.04e+02    -  1.36e-01 3.59e-03h  1
  41 -3.4184916e-02 3.12e+00 5.79e+06  -6.0 4.06e+02    -  3.29e-02 6.39e-02h  1
  42 -3.7504819e-02 2.48e+00 5.55e+06  -6.0 4.44e+02    -  2.16e-01 2.06e-01h  1
  43 -3.8614045e-02 2.21e+00 6.04e+06  -6.0 3.39e+02    -  9.51e-03 1.09e-01h  1
  44 -4.3827451e-02 1.59e+00 8.36e+06  -6.0 3.07e+02    -  4.83e-01 5.58e-01h  1
  45 -4.3906894e-02 1.58e+00 2.69e+07  -6.0 4.19e+02    -  3.96e-01 5.92e-03h  1
  46 -4.3917454e-02 1.57e+00 1.90e+07  -6.0 8.36e+01  -1.6 2.75e-04 4.84e-03h  1
  47 -4.3934413e-02 1.55e+00 3.11e+07  -6.0 1.03e+02  -2.1 4.93e-03 1.69e-02h  1
  48 -4.3936298e-02 1.54e+00 2.96e+07  -6.0 1.10e+02  -2.6 8.22e-03 4.44e-03h  1
  49 -4.3940127e-02 1.52e+00 3.08e+07  -6.0 1.34e+02  -3.1 9.47e-03 3.68e-02h  1
iter    objective    inf_pr   inf_du lg(mu)  ||d||  lg(rg) alpha_du alpha_pr  ls
  50 -4.3961344e-02 1.47e+00 2.13e+07  -6.0 1.10e+02  -2.7 2.06e-01 3.58e-02h  1
  51 -4.3895568e-02 1.59e+00 2.10e+07  -6.0 1.57e+02  -3.1 5.22e-02 6.04e-02h  3
  52 -4.4189512e-02 1.59e+00 3.28e+07  -6.0 1.10e+02  -2.7 4.35e-01 2.61e-01H  1
  53r-4.4189512e-02 1.59e+00 1.00e+03  -0.1 0.00e+00  -2.3 0.00e+00 3.40e-07R  5
  54r-4.4142868e-02 1.59e+00 2.00e+03  -0.1 4.34e+03    -  1.80e-05 1.11e-06f  1
  55 -4.4142978e-02 1.59e+00 1.47e+05  -6.0 7.12e+01    -  6.01e-03 2.67e-05h  1
  56 -4.4146247e-02 1.59e+00 3.54e+06  -6.0 1.10e+02    -  3.07e-05 7.38e-04h  1
  57 -4.4178508e-02 1.58e+00 3.54e+06  -6.0 1.11e+02    -  1.79e-01 6.87e-03f  1
  58 -4.4298983e-02 1.54e+00 3.50e+06  -6.0 1.09e+02    -  7.66e-03 2.54e-02h  1
  59 -4.5366052e-02 1.17e+00 5.15e+06  -6.0 1.12e+02    -  3.05e-02 2.46e-01f  1
iter    objective    inf_pr   inf_du lg(mu)  ||d||  lg(rg) alpha_du alpha_pr  ls
  60 -4.5650331e-02 1.06e+00 2.38e+06  -6.0 6.08e+01    -  4.59e-01 9.81e-02h  1
  61 -4.8034393e-02 5.46e-01 1.08e+07  -6.0 6.17e+01    -  2.61e-01 9.89e-01h  1
  62 -4.8013876e-02 5.68e-01 8.27e+08  -6.0 4.71e+02    -  1.01e-03 1.25e-01h  3
  63 -4.7662797e-02 5.43e-01 4.24e+08  -6.0 6.32e+01    -  3.18e-03 9.00e-01h  1
  64 -4.9008430e-02 3.86e-02 2.12e+06  -6.0 3.08e+01    -  4.22e-01 1.00e+00h  1
  65 -4.9015523e-02 3.29e-02 1.81e+06  -6.0 2.29e+00    -  6.64e-01 1.44e-01h  1
  66 -4.9159171e-02 5.80e-03 7.56e+03  -6.0 4.54e+00    -  7.72e-01 1.00e+00f  1
  67 -4.9457315e-02 7.14e-03 1.82e+03  -6.0 6.58e+00    -  7.56e-01 1.00e+00h  1
  68 -5.0512365e-02 4.75e-02 1.30e+02  -6.0 3.38e+01    -  9.09e-01 1.00e+00h  1
  69 -5.4162611e-02 2.22e+00 4.36e+02  -6.0 1.81e+02    -  9.37e-02 6.93e-01h  1
iter    objective    inf_pr   inf_du lg(mu)  ||d||  lg(rg) alpha_du alpha_pr  ls
  70 -5.4155976e-02 2.18e+00 4.68e+03  -6.0 1.43e+00  -2.8 3.54e-04 2.19e-02h  1
  71 -6.1057552e-02 2.10e+00 1.10e+04  -6.0 3.36e+02    -  8.13e-02 2.45e-01f  1
  72 -5.9675492e-02 2.08e+00 9.60e+03  -6.0 1.69e+02    -  2.57e-01 1.36e-01h  1
  73 -6.4418470e-02 1.44e+00 6.95e+03  -6.0 3.03e+02    -  4.32e-01 2.73e-01h  1
  74 -6.7497988e-02 1.18e+00 6.55e+03  -6.0 2.18e+02    -  6.02e-02 1.93e-01h  1
  75 -6.9770664e-02 9.48e-01 4.86e+03  -6.0 2.37e+02    -  4.02e-01 1.33e-01h  1
  76 -7.3605325e-02 8.69e-01 6.61e+04  -6.0 3.84e+02    -  1.79e-02 2.05e-01f  1
  77 -7.9932348e-02 4.50e+00 4.27e+04  -6.0 4.16e+02    -  1.01e-01 2.90e-01h  1
  78 -7.9996352e-02 4.49e+00 4.25e+04  -6.0 1.35e+01  -3.2 3.61e-03 4.10e-03h  1
  79 -8.0112665e-02 4.47e+00 4.24e+04  -6.0 4.66e+02    -  6.40e-04 4.49e-03f  1
iter    objective    inf_pr   inf_du lg(mu)  ||d||  lg(rg) alpha_du alpha_pr  ls
  80 -8.0167990e-02 4.45e+00 5.91e+06  -6.0 1.07e+01  -3.7 8.05e-09 4.25e-03f  1
  81 -8.0215219e-02 4.31e+00 5.73e+06  -6.0 7.64e+00  -4.2 6.76e-04 2.98e-02h  1
  82 -8.0257203e-02 4.17e+00 5.54e+06  -6.0 6.37e+00  -4.7 3.82e-02 3.31e-02h  1
  83 -8.1575208e-02 4.00e+00 5.27e+06  -6.0 1.06e+03    -  3.70e-03 4.33e-02h  1
  84 -8.3597500e-02 3.70e+00 4.73e+06  -6.0 4.45e+02    -  2.38e-01 9.72e-02h  1
  85 -8.5870843e-02 3.34e+00 4.13e+06  -6.0 6.29e+02    -  1.94e-01 1.22e-01h  1
  86 -9.1299146e-02 2.96e+00 2.66e+06  -6.0 6.60e+02    -  2.24e-01 3.29e-01h  1
  87 -9.3389238e-02 3.04e+00 2.29e+06  -6.0 9.31e+02    -  5.27e-01 1.38e-01h  1
  88 -1.0033265e-01 1.32e+01 1.73e+06  -6.0 2.71e+03    -  4.18e-01 2.30e-01h  1
  89 -1.0035252e-01 1.15e+01 1.51e+06  -6.0 9.80e+00  -5.1 2.34e-02 1.25e-01h  1
iter    objective    inf_pr   inf_du lg(mu)  ||d||  lg(rg) alpha_du alpha_pr  ls
  90 -1.0042438e-01 9.66e+00 1.26e+06  -6.0 1.02e+01  -5.6 1.08e-01 1.64e-01h  1
  91 -1.0052409e-01 5.71e+00 6.63e+05  -6.0 1.26e+01  -6.1 5.53e-01 4.78e-01h  1
  92 -1.0098017e-01 3.76e+00 3.76e+05  -6.0 2.78e+01  -6.6 5.31e-01 4.29e-01h  1
  93 -1.0110208e-01 9.53e-01 4.90e+05  -6.0 1.29e+01  -6.1 1.18e-02 9.41e-01h  1
  94 -1.0135390e-01 6.91e-01 3.33e+05  -6.0 2.39e+01  -6.6 3.41e-01 3.20e-01h  1
  95 -1.0149167e-01 6.09e-01 2.92e+05  -6.0 3.57e+01  -7.1 9.98e-01 1.21e-01h  1
  96 -1.0203025e-01 6.09e-01 1.80e+05  -6.0 9.66e+01  -7.6 5.39e-01 3.83e-01h  1
  97 -1.0305840e-01 6.14e-01 1.29e+05  -6.0 3.06e+02  -8.1 7.87e-01 2.83e-01h  1
  98 -1.0478700e-01 1.92e+00 9.55e+04  -6.0 6.93e+02  -8.5 2.31e-01 2.60e-01h  1
  99 -1.0647986e-01 2.07e+00 4.54e+04  -6.0 3.40e+02  -8.1 5.16e-01 5.25e-01h  1
iter    objective    inf_pr   inf_du lg(mu)  ||d||  lg(rg) alpha_du alpha_pr  ls
 100 -1.0801817e-01 4.41e+00 3.52e+04  -6.0 6.52e+02  -8.6 3.38e-01 2.24e-01h  1
 101 -1.0874745e-01 4.44e+00 2.54e+04  -6.0 2.92e+02  -8.2 1.00e+00 2.80e-01h  1
 102 -1.0960326e-01 3.77e+00 2.14e+04  -6.0 6.85e+02  -8.6 6.02e-01 1.57e-01h  1
 103 -1.1076457e-01 1.79e+00 9.86e+03  -6.0 2.51e+02  -8.2 1.00e+00 5.39e-01h  1
 104 -1.1234095e-01 1.65e+00 6.78e+03  -6.0 7.79e+02  -8.7 3.32e-01 3.12e-01h  1
 105 -1.1387429e-01 6.60e+00 5.85e+03  -6.0 3.73e+03  -9.2 1.99e-01 1.37e-01h  1
 106 -1.1608815e-01 5.81e+00 2.99e+03  -6.0 7.90e+02  -8.7 5.44e-01 4.89e-01h  1
 107 -1.1721634e-01 9.04e+00 2.14e+03  -6.0 1.84e+03  -9.2 8.26e-03 2.85e-01h  1
 108 -1.1758400e-01 8.70e+00 2.04e+03  -6.0 2.00e+03  -9.7 1.17e-01 4.50e-02h  1
 109 -1.1990129e-01 6.54e+00 6.83e+02  -6.0 6.78e+02  -9.3 7.64e-01 6.69e-01h  1
iter    objective    inf_pr   inf_du lg(mu)  ||d||  lg(rg) alpha_du alpha_pr  ls
 110 -1.2028317e-01 6.15e+00 6.23e+02  -6.0 2.56e+03  -9.7 1.12e-01 6.01e-02h  1
 111 -1.2161503e-01 7.18e+00 2.08e+02  -6.0 6.03e+02  -9.3 6.08e-01 6.66e-01h  1
 112 -1.2175068e-01 7.14e+00 1.90e+02  -6.0 6.38e+03  -9.8 1.40e-02 6.97e-03h  1
 113 -1.2311508e-01 6.18e+00 5.26e+02  -6.0 7.11e+02  -9.4 3.91e-01 5.71e-01h  1
 114 -1.2503921e-01 2.13e+01 1.60e+03  -6.0 4.41e+03  -9.8 2.11e-02 1.99e-01h  1
 115 -1.2551238e-01 1.71e+01 2.21e+03  -6.0 1.59e+03 -10.3 4.56e-02 1.98e-01h  1
 116 -1.2665741e-01 1.10e+01 6.59e+03  -6.0 6.26e+02  -9.0 8.88e-02 4.90e-01h  1
 117 -1.2677339e-01 1.09e+01 1.31e+03  -6.0 2.37e+03  -9.5 3.03e-01 1.77e-02h  1
 118 -1.2799332e-01 4.10e+00 5.89e+02  -6.0 1.10e+03  -9.9 5.85e-01 6.25e-01h  1
 119 -1.2857756e-01 1.05e+00 9.16e+03  -6.0 3.95e+02  -7.7 3.05e-01 7.53e-01h  1
iter    objective    inf_pr   inf_du lg(mu)  ||d||  lg(rg) alpha_du alpha_pr  ls
 120 -1.2861617e-01 9.10e-01 6.91e+05  -6.0 1.43e+02  -8.2 4.18e-03 1.41e-01h  1
 121 -1.2872514e-01 7.93e-01 5.74e+05  -6.0 2.31e+02  -8.7 1.15e-02 1.69e-01f  1
 122 -1.2868186e-01 8.00e-01 5.69e+05  -6.0 2.71e+03  -9.1 3.77e-01 8.76e-03h  5
 123 -1.2912985e-01 8.68e-01 2.96e+05  -6.0 8.33e+02  -9.6 6.19e-01 4.80e-01h  1
 124 -1.2945967e-01 1.19e+00 5.81e+04  -6.0 2.44e+02  -8.3 1.61e-03 8.02e-01h  1
 125 -1.2949929e-01 1.14e+00 5.61e+04  -6.0 2.49e+02  -8.8 2.23e-04 3.52e-02h  1
 126 -1.2952587e-01 1.12e+00 5.53e+04  -6.0 6.41e+02  -9.2 1.40e-01 1.36e-02h  1
 127 -1.2956561e-01 1.04e+00 5.14e+04  -6.0 3.55e+02  -9.7 9.68e-01 7.13e-02h  1
 128 -1.3012612e-01 6.46e+00 7.38e+03  -6.0 1.15e+03 -10.2 6.14e-01 8.62e-01h  1
 129 -1.3015734e-01 7.39e+00 7.18e+03  -6.0 9.26e+03 -10.7 9.46e-02 2.69e-02h  1
iter    objective    inf_pr   inf_du lg(mu)  ||d||  lg(rg) alpha_du alpha_pr  ls
 130 -1.3016619e-01 7.33e+00 7.11e+03  -6.0 1.58e+04 -10.3 1.01e-02 9.63e-03h  1
Error in an AMPL evaluation. Run with "halt_on_ampl_error yes" to see details.
Warning: Cutting back alpha due to evaluation error
 131 -1.3016949e-01 7.30e+00 7.08e+03  -6.0 5.61e+03  -9.8 5.05e-03 4.00e-03h  2
 132 -1.3015914e-01 7.30e+00 7.08e+03  -6.0 1.56e+05  -9.4 1.20e-04 6.14e-04h  1
 133 -1.3017796e-01 6.68e+00 7.18e+03  -6.0 3.08e+02  -6.3 2.68e-02 8.49e-02h  1
 134 -1.3017114e-01 6.08e+00 6.39e+03  -6.0 1.77e+01  -4.9 1.06e-01 9.01e-02h  1
 135 -1.3015363e-01 5.64e+00 6.18e+03  -6.0 3.03e+02  -5.4 8.56e-03 7.28e-02h  1
 136 -1.3015543e-01 5.63e+00 6.08e+03  -6.0 6.60e+02  -5.9 4.35e-08 1.07e-03h  1
 137 -1.3015939e-01 5.63e+00 6.07e+03  -6.0 1.53e+03  -5.5 7.66e-04 1.70e-04h  1
Error in an AMPL evaluation. Run with "halt_on_ampl_error yes" to see details.
Warning: Cutting back alpha due to evaluation error
 138 -1.3017604e-01 5.61e+00 6.05e+03  -6.0 5.88e+02  -5.9 4.20e-03 2.83e-03h  2
Error in an AMPL evaluation. Run with "halt_on_ampl_error yes" to see details.
Warning: Cutting back alpha due to evaluation error
 139 -1.3019031e-01 5.60e+00 6.04e+03  -6.0 8.41e+02  -6.4 4.58e-03 2.06e-03h  2
Error in an AMPL evaluation. Run with "halt_on_ampl_error yes" to see details.
Warning: Cutting back alpha due to evaluation error
iter    objective    inf_pr   inf_du lg(mu)  ||d||  lg(rg) alpha_du alpha_pr  ls
 140 -1.3019773e-01 5.60e+00 6.02e+03  -6.0 3.47e+02  -6.0 2.30e-02 1.03e-03h  2
Error in an AMPL evaluation. Run with "halt_on_ampl_error yes" to see details.
Warning: Cutting back alpha due to evaluation error
 141 -1.3020343e-01 5.59e+00 6.01e+03  -6.0 5.03e+02  -6.5 4.41e-03 9.01e-04h  2
Error in an AMPL evaluation. Run with "halt_on_ampl_error yes" to see details.
Warning: Cutting back alpha due to evaluation error
 142 -1.3021185e-01 5.58e+00 6.00e+03  -6.0 2.74e+03  -6.9 1.86e-03 1.42e-03h  2
Error in an AMPL evaluation. Run with "halt_on_ampl_error yes" to see details.
Warning: Cutting back alpha due to evaluation error
 143 -1.3020832e-01 5.58e+00 6.00e+03  -6.0 4.40e+04  -7.4 2.19e-04 1.63e-04h  2
 144 -1.3022236e-01 5.57e+00 5.99e+03  -6.0 3.79e+03  -7.9 7.48e-03 1.35e-03h  1
Error in an AMPL evaluation. Run with "halt_on_ampl_error yes" to see details.
Warning: Cutting back alpha due to evaluation error
 145 -1.3022006e-01 5.57e+00 5.99e+03  -6.0 2.61e+04  -8.4 8.84e-04 4.03e-04f  2
Error in an AMPL evaluation. Run with "halt_on_ampl_error yes" to see details.
Warning: Cutting back alpha due to evaluation error
 146 -1.3022000e-01 5.57e+00 5.98e+03  -6.0 1.69e+04  -8.9 1.03e-03 7.63e-04h  2
Error in an AMPL evaluation. Run with "halt_on_ampl_error yes" to see details.
Warning: Cutting back alpha due to evaluation error
 147 -1.3021822e-01 5.56e+00 6.00e+03  -6.0 1.81e+04  -9.3 3.74e-02 1.11e-03h  2
 148 -1.3018164e-01 5.52e+00 5.95e+03  -6.0 1.88e+04  -9.8 4.01e-03 7.35e-03h  4
 149 -1.3009657e-01 5.46e+00 5.88e+03  -6.0 2.65e+04 -10.3 5.82e-03 1.16e-02h  4
iter    objective    inf_pr   inf_du lg(mu)  ||d||  lg(rg) alpha_du alpha_pr  ls
 150 -1.2993574e-01 5.03e+00 5.49e+03  -6.0 7.53e+03  -9.9 1.87e-02 7.97e-02h  1
 151 -1.2998909e-01 4.78e+00 5.11e+03  -6.0 2.62e+03  -9.4 1.43e-01 5.06e-02h  1
 152 -1.3005134e-01 3.94e+00 4.11e+03  -6.0 8.45e+02  -9.0 3.90e-01 1.75e-01h  1
 153 -1.3016749e-01 1.62e+00 1.68e+03  -6.0 3.06e+02  -8.6 4.46e-01 5.88e-01h  1
 154 -1.3032057e-01 3.92e-01 1.41e+01  -6.0 1.18e+02  -8.2 7.81e-01 1.00e+00h  1
 155 -1.3035246e-01 3.87e-01 1.31e+01  -6.0 3.99e+02  -8.6 3.66e-01 7.48e-02h  1
 156 -1.3038673e-01 3.40e-01 1.48e+02  -6.0 3.35e+02  -9.1 6.69e-01 1.59e-01h  1
 157 -1.3053205e-01 3.01e-01 1.18e+02  -6.0 2.52e+03  -9.6 2.07e-01 2.06e-01h  1
Error in an AMPL evaluation. Run with "halt_on_ampl_error yes" to see details.
Warning: Cutting back alpha due to evaluation error
 158 -1.3053645e-01 2.98e-01 1.14e+02  -6.0 1.20e+03 -10.1 3.99e-04 9.06e-03h  2
 159 -1.3055450e-01 2.76e-01 3.05e+02  -6.0 1.10e+02  -6.9 3.69e-02 8.42e-02h  1
iter    objective    inf_pr   inf_du lg(mu)  ||d||  lg(rg) alpha_du alpha_pr  ls
 160 -1.3059211e-01 1.76e-01 6.77e+02  -6.0 8.33e+01  -7.4 8.88e-02 7.16e-01h  1
 161 -1.3065656e-01 9.66e-02 2.23e+00  -6.0 5.95e+01  -7.9 8.33e-01 1.00e+00f  1
 162 -1.3082213e-01 7.73e-01 6.10e+00  -6.0 2.84e+02  -8.4 3.17e-01 5.75e-01h  1
 163 -1.3082487e-01 7.29e-01 1.90e+03  -6.0 7.87e+01  -6.1 7.18e-02 5.72e-02h  1
 164 -1.3082644e-01 7.18e-01 6.79e+03  -6.0 7.83e+01  -6.6 2.11e-01 1.53e-02f  1
 165 -1.3081568e-01 1.59e-02 5.90e+01  -6.0 1.66e+01  -7.1 3.59e-01 1.00e+00f  1
 166 -1.3083572e-01 2.30e-02 2.37e+01  -6.0 4.40e+01  -7.6 7.31e-01 6.26e-01h  1
 167 -1.3094819e-01 4.61e-01 3.91e+00  -6.0 1.31e+02  -8.0 7.62e-01 1.00e+00h  1
 168 -1.3108104e-01 7.82e-01 6.96e+00  -6.0 3.40e+02  -8.5 4.65e-01 4.06e-01h  1
 169 -1.3111797e-01 4.17e-01 6.59e+03  -6.0 7.63e+01  -9.0 1.00e+00 5.18e-01h  1
iter    objective    inf_pr   inf_du lg(mu)  ||d||  lg(rg) alpha_du alpha_pr  ls
 170 -1.3126219e-01 9.24e-01 2.31e+03  -6.0 3.74e+02  -9.5 3.45e-01 4.33e-01h  1
 171 -1.3140805e-01 1.90e+01 3.75e+05  -6.0 9.50e+02  -9.9 4.88e-02 1.00e+00h  1
 172 -1.3153531e-01 1.18e+01 2.22e+05  -6.0 4.43e+02  -9.5 4.15e-01 4.09e-01h  1
 173 -1.3182429e-01 6.40e+01 1.57e+05  -6.0 5.81e+03 -10.0 1.02e-01 2.89e-01h  1
 174 -1.3182822e-01 6.38e+01 1.57e+05  -6.0 9.70e+02  -7.8 9.68e-02 2.94e-03h  1
 175 -1.3204693e-01 5.74e+01 1.40e+05  -6.0 2.89e+03  -8.2 3.57e-02 1.11e-01h  1
 176 -1.3224704e-01 3.53e+01 8.55e+04  -6.0 2.17e+02  -8.7 1.78e-01 3.87e-01h  1
 177 -1.3226567e-01 1.21e+01 2.87e+04  -6.0 6.12e+02  -8.3 5.11e-01 6.65e-01h  1
 178 -1.3225501e-01 8.58e+00 2.03e+04  -6.0 1.19e+02  -8.8 7.48e-01 2.92e-01h  1
 179 -1.3226326e-01 4.76e+00 1.10e+04  -6.0 3.40e+02  -9.2 1.00e+00 4.62e-01h  1
iter    objective    inf_pr   inf_du lg(mu)  ||d||  lg(rg) alpha_du alpha_pr  ls
 180 -1.3252490e-01 2.02e+00 2.21e+03  -6.0 1.08e+03  -9.7 4.78e-01 8.00e-01h  1
 181 -1.3250472e-01 1.67e+00 1.84e+03  -6.0 9.11e+02  -9.3 2.18e-01 1.71e-01h  1
 182 -1.3288351e-01 1.49e+01 9.32e+02  -6.0 2.31e+03  -9.8 3.46e-01 4.95e-01h  1
 183 -1.3346105e-01 1.41e+01 2.92e+03  -6.0 1.66e+04 -10.3 6.19e-03 7.72e-02h  1
 184 -1.3422436e-01 1.23e+01 4.42e+03  -6.0 1.57e+04    -  1.82e-03 8.49e-02h  1
 185 -1.3418195e-01 1.19e+01 4.29e+03  -6.0 4.28e+02  -8.0 4.54e-02 3.37e-02h  1
 186 -1.3425593e-01 1.09e+01 3.77e+03  -6.0 1.48e+02  -7.6 4.26e-02 8.34e-02h  1
 187 -1.3467574e-01 9.73e+00 6.68e+03  -6.0 3.93e+02  -7.2 1.06e-02 1.14e-01h  1
 188 -1.3497076e-01 8.51e+00 4.70e+03  -6.0 2.18e+02  -7.6 2.31e-01 2.10e-01h  1
 189 -1.3503840e-01 8.38e+00 1.31e+04  -6.0 3.53e+02  -8.1 4.77e-01 3.19e-02h  1
iter    objective    inf_pr   inf_du lg(mu)  ||d||  lg(rg) alpha_du alpha_pr  ls
 190 -1.3572181e-01 3.42e+00 7.53e+03  -6.0 1.26e+02  -8.6 4.86e-02 6.35e-01h  1
 191 -1.3577633e-01 3.12e+00 1.82e+06  -6.0 1.41e+03  -9.1 1.32e-03 8.40e-02h  1
 192 -1.3621600e-01 2.36e+00 1.20e+06  -6.0 4.91e+03    -  1.54e-01 3.38e-01h  1
 193 -1.3621096e-01 2.28e+00 1.16e+06  -6.0 3.25e+03  -9.6 4.14e-02 3.37e-02h  1
 194 -1.3627285e-01 2.05e+00 1.03e+06  -6.0 3.94e+03    -  9.50e-02 1.16e-01h  1
 195 -1.3650032e-01 1.51e+00 4.85e+05  -6.0 3.66e+03    -  6.72e-01 5.27e-01h  1
 196 -1.3650055e-01 1.51e+00 4.85e+05  -6.0 1.21e+05    -  2.32e-02 6.94e-04h  2
 197 -1.3658289e-01 2.90e+00 2.05e+05  -6.0 2.27e+03    -  4.19e-03 5.75e-01h  1
 198 -1.3659950e-01 3.02e+00 2.00e+05  -6.0 3.81e+03 -10.0 1.80e-01 2.74e-02h  2
 199 -1.3669105e-01 2.14e+00 1.38e+05  -6.0 8.27e+02    -  6.58e-01 3.08e-01h  1
iter    objective    inf_pr   inf_du lg(mu)  ||d||  lg(rg) alpha_du alpha_pr  ls
 200 -1.3693018e-01 1.32e+00 8.45e+04  -6.0 1.43e+03    -  6.63e-01 3.85e-01h  1
 201 -1.3695362e-01 2.06e+00 5.86e+04  -6.0 1.08e+03    -  8.44e-01 3.06e-01h  1
 202 -1.3712165e-01 9.49e-01 1.64e+04  -6.0 2.34e+02    -  1.60e-01 7.24e-01h  1
 203 -1.3725375e-01 1.32e+00 5.57e+03  -6.0 3.80e+02 -10.5 6.46e-01 6.63e-01h  1
 204 -1.3730032e-01 1.09e+00 3.94e+03  -6.0 3.70e+02 -10.1 3.53e-01 2.93e-01h  1
 205 -1.3742826e-01 3.44e+00 3.45e+06  -6.0 6.81e+02 -10.6 2.81e-03 6.18e-01h  1
 206 -1.3754679e-01 1.08e+01 1.22e+02  -6.0 7.95e+02    -  3.49e-02 1.00e+00h  1
 207 -1.3759351e-01 1.19e+01 7.38e+01  -6.0 1.71e+03    -  4.09e-01 2.87e-01h  1
 208 -1.3770010e-01 9.79e+00 2.37e+01  -6.0 8.14e+02    -  1.00e+00 8.38e-01h  1
 209 -1.3770439e-01 9.57e+00 9.12e+01  -6.0 2.39e+03    -  1.43e-01 7.02e-02h  1
iter    objective    inf_pr   inf_du lg(mu)  ||d||  lg(rg) alpha_du alpha_pr  ls
 210 -1.3771272e-01 8.49e+00 2.47e+01  -6.0 1.39e+03    -  2.44e-01 3.74e-01h  2
 211 -1.3765653e-01 2.53e+00 1.19e+01  -6.0 3.08e+02    -  1.00e+00 7.19e-01h  1
 212 -1.3763294e-01 3.16e-01 7.75e-02  -6.0 1.08e+02    -  1.00e+00 1.00e+00h  1
 213 -1.3763097e-01 3.48e-01 1.52e+01  -6.0 8.41e+02    -  1.00e+00 1.09e-01h  2
 214 -1.3761307e-01 3.69e+00 5.40e-01  -6.0 4.44e+02    -  1.00e+00 1.00e+00h  1
 215 -1.3761238e-01 6.44e-02 1.34e+00  -6.0 5.57e+01    -  3.49e-01 1.00e+00h  1
 216 -1.3761736e-01 2.07e+00 3.65e+00  -6.0 1.96e+02    -  5.04e-01 1.00e+00H  1
 217 -1.3761671e-01 1.73e-01 3.36e-03  -6.0 3.21e+01    -  1.00e+00 1.00e+00h  1
 218 -1.3762260e-01 1.70e-01 4.99e-02  -6.0 1.87e+02    -  4.95e-01 5.00e-01h  2
 219 -1.3761927e-01 2.07e-01 1.21e-02  -6.0 5.59e+01    -  1.00e+00 1.00e+00h  1
iter    objective    inf_pr   inf_du lg(mu)  ||d||  lg(rg) alpha_du alpha_pr  ls
 220 -1.3762024e-01 3.90e-02 9.90e-04  -6.0 1.87e+01    -  1.00e+00 1.00e+00h  1
 221 -1.3762019e-01 2.70e-05 1.84e-06  -6.0 5.52e-01    -  1.00e+00 1.00e+00h  1
 222 -1.3762019e-01 8.08e-10 2.01e-11  -6.0 2.97e-03    -  1.00e+00 1.00e+00h  1
 223 -1.3816160e-01 3.32e+00 1.34e+01  -7.5 2.81e+03    -  2.23e-01 2.05e-01f  1
 224 -1.3855231e-01 5.62e+00 2.18e+01  -7.5 2.88e+03    -  2.75e-01 2.06e-01h  1
 225 -1.3857127e-01 5.49e+00 1.43e+02  -7.5 2.77e+02  -9.2 6.56e-01 2.30e-02h  1
 226 -1.3867628e-01 6.11e+00 1.12e+02  -7.5 6.93e+03    -  2.78e-03 5.48e-02h  1
 227 -1.3868579e-01 6.05e+00 1.43e+02  -7.5 4.93e+02  -9.7 3.88e-01 9.81e-03h  1
 228 -1.3868432e-01 3.69e+00 1.23e+02  -7.5 2.96e+00  -5.7 6.88e-01 3.90e-01h  1
 229 -1.3868397e-01 2.10e+00 6.76e+01  -7.5 1.97e+00  -6.1 3.82e-01 4.32e-01h  1
iter    objective    inf_pr   inf_du lg(mu)  ||d||  lg(rg) alpha_du alpha_pr  ls
 230 -1.3869140e-01 1.36e+00 4.92e+01  -7.5 3.96e+00  -6.6 5.57e-01 3.53e-01h  1
 231 -1.3870487e-01 1.02e+00 3.72e+01  -7.5 7.99e+00  -7.1 2.77e-01 2.49e-01h  1
 232 -1.3871306e-01 9.22e-01 4.80e+01  -7.5 2.41e+01  -7.6 1.00e+00 9.47e-02h  1
 233 -1.3878020e-01 5.54e-01 2.82e+01  -7.5 7.10e+01  -8.1 3.58e-01 3.99e-01h  1
 234 -1.3882703e-01 4.77e-01 1.96e+01  -7.5 1.92e+02  -8.5 1.00e+00 1.40e-01h  1
 235 -1.3886995e-01 4.40e-01 1.66e+01  -7.5 4.66e+02  -9.0 3.21e-01 7.80e-02h  1
 236 -1.3907692e-01 4.41e-01 1.31e+01  -7.5 9.77e+02  -9.5 1.86e-01 2.17e-01h  1
 237 -1.3914182e-01 4.95e-01 8.47e+01  -7.5 5.29e+02 -10.0 3.07e-02 2.58e-01h  1
 238 -1.3916970e-01 9.19e-01 8.74e+01  -7.5 2.60e+03 -10.4 4.46e-03 3.83e-02h  1
 239 -1.3918519e-01 5.77e-01 8.01e+01  -7.5 4.95e+03 -10.9 3.28e-02 2.25e-02h  1
iter    objective    inf_pr   inf_du lg(mu)  ||d||  lg(rg) alpha_du alpha_pr  ls
 240 -1.3918866e-01 5.74e-01 1.08e+02  -7.5 8.23e+03 -11.4 1.08e-01 5.36e-03h  1
 241 -1.3920497e-01 8.77e-01 1.02e+02  -7.5 7.67e+03    -  9.86e-02 2.97e-02h  1
 242 -1.3923861e-01 8.18e-01 9.42e+01  -7.5 2.80e+03    -  2.30e-01 6.63e-02h  1
 243 -1.3932126e-01 1.81e+00 7.77e+01  -7.5 2.58e+03    -  1.18e-01 1.81e-01h  1
 244 -1.3932228e-01 1.80e+00 7.93e+01  -7.5 6.46e+02 -10.1 3.87e-02 7.01e-03h  1
 245 -1.3936281e-01 2.03e+00 6.98e+01  -7.5 2.33e+03    -  1.02e-02 9.60e-02f  1
 246 -1.3936722e-01 1.98e+00 6.90e+01  -7.5 1.14e+03 -10.5 9.48e-02 2.12e-02h  1
 247 -1.3958493e-01 1.14e+01 3.49e+01  -7.5 2.03e+03    -  1.54e-02 4.59e-01f  1
 248 -1.3959600e-01 1.05e+01 3.15e+01  -7.5 1.22e+03    -  1.60e-01 1.01e-01h  1
 249 -1.3966993e-01 1.86e+01 2.29e+01  -7.5 3.28e+03    -  4.05e-01 2.80e-01h  1
iter    objective    inf_pr   inf_du lg(mu)  ||d||  lg(rg) alpha_du alpha_pr  ls
 250 -1.3970963e-01 2.10e+01 2.90e+01  -7.5 3.17e+03    -  6.45e-01 2.16e-01h  1
 251 -1.3979090e-01 3.99e+01 6.56e+02  -7.5 2.43e+03    -  8.53e-04 6.22e-01h  1
 252 -1.3979721e-01 3.40e+01 5.36e+02  -7.5 9.79e+02    -  1.55e-02 1.57e-01h  1
 253 -1.3980560e-01 1.96e+01 2.36e+02  -7.5 5.42e+02 -10.1 2.58e-01 4.52e-01h  1
 254 -1.3982344e-01 2.15e+01 2.24e+02  -7.5 7.49e+03    -  1.77e-01 5.99e-02h  1
 255 -1.3988054e-01 5.30e+01 2.27e+02  -7.5 5.12e+03    -  5.20e-01 3.08e-01h  1
 256 -1.3988070e-01 5.30e+01 2.27e+02  -7.5 5.48e+03    -  5.68e-01 1.26e-03h  1
 257 -1.3993546e-01 5.64e+01 1.67e+02  -7.5 1.81e+03    -  4.58e-01 1.00e+00h  1
 258 -1.3995552e-01 4.27e+01 1.28e+02  -7.5 1.65e+03    -  2.64e-02 3.67e-01h  1
 259 -1.4000157e-01 3.20e+01 1.79e+03  -7.5 1.28e+03    -  1.62e-02 1.00e+00h  1
iter    objective    inf_pr   inf_du lg(mu)  ||d||  lg(rg) alpha_du alpha_pr  ls
 260 -1.4000577e-01 2.97e+01 1.66e+03  -7.5 1.19e+03    -  6.12e-02 7.51e-02h  1
 261 -1.3999252e-01 6.76e+00 5.16e+01  -7.5 6.11e+02    -  3.39e-01 1.00e+00h  1
 262 -1.4000979e-01 9.08e+00 4.45e+01  -7.5 2.65e+03    -  3.07e-01 1.58e-01h  1
 263 -1.4003923e-01 5.08e+01 1.41e+02  -7.5 2.98e+03    -  9.80e-01 5.18e-01h  1
 264 -1.4005759e-01 8.86e+00 2.20e+02  -7.5 7.06e+02    -  9.24e-02 1.00e+00h  1
 265 -1.4007557e-01 6.78e+00 6.97e+01  -7.5 6.94e+02 -10.6 6.25e-01 6.79e-01h  1
 266 -1.4009160e-01 2.45e+00 1.54e+01  -7.5 3.65e+02 -10.2 1.00e+00 1.00e+00h  1
 267 -1.4015837e-01 4.47e+01 3.37e+02  -7.5 2.93e+03 -10.6 2.37e-01 5.32e-01h  1
Error in an AMPL evaluation. Run with "halt_on_ampl_error yes" to see details.
Warning: Cutting back alpha due to evaluation error
 268 -1.4020085e-01 2.99e+01 3.59e+01  -7.5 9.15e+02 -10.2 3.85e-02 3.91e-01h  2
 269 -1.4021477e-01 3.01e+01 3.81e+01  -7.5 3.26e+05  -9.8 2.53e-04 2.43e-04h  1
iter    objective    inf_pr   inf_du lg(mu)  ||d||  lg(rg) alpha_du alpha_pr  ls
 270 -1.4029773e-01 3.59e+01 1.45e+02  -7.5 3.12e+03 -10.3 4.55e-01 2.65e-01h  1
 271 -1.4041510e-01 8.21e+00 2.51e+03  -7.5 5.91e+02    -  4.44e-01 1.00e+00h  1
 272 -1.4044446e-01 8.11e+00 2.19e+03  -7.5 2.01e+03  -9.8 4.42e-01 7.79e-02h  1
 273 -1.4037296e-01 7.96e+00 1.19e+03  -7.5 8.90e+02    -  4.11e-01 4.40e-01h  1
 274 -1.4041298e-01 5.50e+00 1.57e+03  -7.5 3.96e+02    -  7.29e-01 3.67e-01h  1
 275 -1.4045369e-01 7.41e-01 1.64e+03  -7.5 1.77e+02    -  3.38e-02 9.80e-01h  1
 276 -1.4045054e-01 4.59e-01 1.07e+03  -7.5 3.93e+01    -  1.00e+00 3.88e-01h  1
 277 -1.4044403e-01 2.38e-02 1.72e+02  -7.5 3.33e+01    -  6.75e-01 1.00e+00h  1
 278 -1.4044261e-01 2.47e-03 1.60e+00  -7.5 1.06e+01    -  1.00e+00 1.00e+00h  1
 279 -1.4044250e-01 1.44e-06 2.40e-04  -7.5 2.53e-01    -  1.00e+00 1.00e+00h  1
iter    objective    inf_pr   inf_du lg(mu)  ||d||  lg(rg) alpha_du alpha_pr  ls
 280 -1.4044250e-01 2.83e-10 3.10e-10  -7.5 5.09e-04    -  1.00e+00 1.00e+00h  1
 281 -1.4044667e-01 2.14e-01 3.15e+00  -9.0 2.45e+02    -  6.67e-01 4.55e-01h  1
 282 -1.4044798e-01 4.18e-01 3.35e+00  -9.0 1.63e+02    -  9.85e-01 8.76e-01h  1
 283 -1.4044776e-01 1.77e-02 6.24e-02  -9.0 2.98e+01    -  1.00e+00 1.00e+00h  1
 284 -1.4044775e-01 6.31e-08 1.14e-07  -9.0 6.09e-02    -  1.00e+00 1.00e+00h  1
 285 -1.4044775e-01 4.58e-10 4.83e-13  -9.0 3.43e-05    -  1.00e+00 1.00e+00h  1

Number of Iterations....: 285

                                   (scaled)                 (unscaled)
Objective...............:  -1.4044775483273733e-01   -1.4044775483273733e-01
Dual infeasibility......:   4.8344661607302442e-13    4.8344661607302442e-13
Constraint violation....:   4.5818715954572958e-10    4.5818715954572958e-10
Complementarity.........:   9.1563161720990113e-10    9.1563161720990113e-10
Overall NLP error.......:   9.1563161720990113e-10    9.1563161720990113e-10


Number of objective function evaluations             = 358
Number of objective gradient evaluations             = 285
Number of equality constraint evaluations            = 370
Number of inequality constraint evaluations          = 359
Number of equality constraint Jacobian evaluations   = 289
Number of inequality constraint Jacobian evaluations = 289
Number of Lagrangian Hessian evaluations             = 285
Total CPU secs in IPOPT (w/o function evaluations)   =    153.966
Total CPU secs in NLP function evaluations           =      4.691

EXIT: Optimal Solution Found.
